NAME /Users/henri/Research/solvers/instances/idol-instances/robust/collection/spp_dkp_Lefebvre_et_al_2026/shortest_path_8_10/uncertainty_sets/discrete_knapsack
ROWS
 N  OBJ
 L  primal_lower
COLUMNS
    MARKER    'MARKER'                 'INTORG'
    y[0,2]     OBJ        0
    y[0,2]     primal_lower -4.13
    y[0,3]     OBJ        0
    y[0,3]     primal_lower -0.13
    y[0,4]     OBJ        0
    y[0,4]     primal_lower -1.06
    y[0,5]     OBJ        0
    y[0,5]     primal_lower -3.11
    y[0,6]     OBJ        0
    y[0,6]     primal_lower -0.49
    y[0,7]     OBJ        0
    y[0,7]     primal_lower -3.11
    y[1,2]     OBJ        0
    y[1,2]     primal_lower -0.27
    y[1,5]     OBJ        0
    y[1,5]     primal_lower -4.82
    y[1,6]     OBJ        0
    y[1,6]     primal_lower -4.92
    y[2,0]     OBJ        0
    y[2,0]     primal_lower -2.62
    y[2,1]     OBJ        0
    y[2,1]     primal_lower -3.2
    y[2,3]     OBJ        0
    y[2,3]     primal_lower -3.84
    y[2,4]     OBJ        0
    y[2,4]     primal_lower -3.84
    y[2,5]     OBJ        0
    y[2,5]     primal_lower -2.1
    y[2,6]     OBJ        0
    y[2,6]     primal_lower -3.86
    y[2,7]     OBJ        0
    y[2,7]     primal_lower -2.13
    y[3,0]     OBJ        0
    y[3,0]     primal_lower -4.65
    y[3,2]     OBJ        0
    y[3,2]     primal_lower -3.42
    y[3,4]     OBJ        0
    y[3,4]     primal_lower -1.85
    y[3,5]     OBJ        0
    y[3,5]     primal_lower -4.31
    y[3,6]     OBJ        0
    y[3,6]     primal_lower -1.91
    y[3,7]     OBJ        0
    y[3,7]     primal_lower -0.48
    y[4,0]     OBJ        0
    y[4,0]     primal_lower -1.63
    y[4,2]     OBJ        0
    y[4,2]     primal_lower -2.08
    y[4,3]     OBJ        0
    y[4,3]     primal_lower -3.73
    y[4,5]     OBJ        0
    y[4,5]     primal_lower -3.3
    y[4,6]     OBJ        0
    y[4,6]     primal_lower -1.01
    y[5,0]     OBJ        0
    y[5,0]     primal_lower -4.06
    y[5,1]     OBJ        0
    y[5,1]     primal_lower -3.95
    y[5,2]     OBJ        0
    y[5,2]     primal_lower -1.98
    y[5,3]     OBJ        0
    y[5,3]     primal_lower -2.56
    y[5,4]     OBJ        0
    y[5,4]     primal_lower -4
    y[5,6]     OBJ        0
    y[5,6]     primal_lower -2.24
    y[5,7]     OBJ        0
    y[5,7]     primal_lower -3.73
    y[6,0]     OBJ        0
    y[6,0]     primal_lower -0.4
    y[6,1]     OBJ        0
    y[6,1]     primal_lower -2.45
    y[6,2]     OBJ        0
    y[6,2]     primal_lower -2.18
    y[6,3]     OBJ        0
    y[6,3]     primal_lower -1.24
    y[6,4]     OBJ        0
    y[6,4]     primal_lower -4.33
    y[6,5]     OBJ        0
    y[6,5]     primal_lower -0.1
    y[7,0]     OBJ        0
    y[7,0]     primal_lower -2.26
    y[7,1]     OBJ        0
    y[7,1]     primal_lower -0.24
    y[7,2]     OBJ        0
    y[7,2]     primal_lower -2.5
    y[7,3]     OBJ        0
    y[7,3]     primal_lower -4.31
    y[7,4]     OBJ        0
    y[7,4]     primal_lower -1.68
    y[7,5]     OBJ        0
    y[7,5]     primal_lower -4.53
    u[0,2]     OBJ        0
    u[0,2]     primal_lower 25
    u[0,3]     OBJ        0
    u[0,3]     primal_lower 39
    u[0,4]     OBJ        0
    u[0,4]     primal_lower 77
    u[0,5]     OBJ        0
    u[0,5]     primal_lower 60
    u[0,6]     OBJ        0
    u[0,6]     primal_lower 15
    u[0,7]     OBJ        0
    u[0,7]     primal_lower 85
    u[1,2]     OBJ        0
    u[1,2]     primal_lower 72
    u[1,5]     OBJ        0
    u[1,5]     primal_lower 89
    u[1,6]     OBJ        0
    u[1,6]     primal_lower 69
    u[2,0]     OBJ        0
    u[2,0]     primal_lower 23
    u[2,1]     OBJ        0
    u[2,1]     primal_lower 51
    u[2,3]     OBJ        0
    u[2,3]     primal_lower 18
    u[2,4]     OBJ        0
    u[2,4]     primal_lower 42
    u[2,5]     OBJ        0
    u[2,5]     primal_lower 11
    u[2,6]     OBJ        0
    u[2,6]     primal_lower 37
    u[2,7]     OBJ        0
    u[2,7]     primal_lower 9
    u[3,0]     OBJ        0
    u[3,0]     primal_lower 22
    u[3,2]     OBJ        0
    u[3,2]     primal_lower 92
    u[3,4]     OBJ        0
    u[3,4]     primal_lower 15
    u[3,5]     OBJ        0
    u[3,5]     primal_lower 52
    u[3,6]     OBJ        0
    u[3,6]     primal_lower 97
    u[3,7]     OBJ        0
    u[3,7]     primal_lower 96
    u[4,0]     OBJ        0
    u[4,0]     primal_lower 64
    u[4,2]     OBJ        0
    u[4,2]     primal_lower 56
    u[4,3]     OBJ        0
    u[4,3]     primal_lower 69
    u[4,5]     OBJ        0
    u[4,5]     primal_lower 68
    u[4,6]     OBJ        0
    u[4,6]     primal_lower 89
    u[5,0]     OBJ        0
    u[5,0]     primal_lower 91
    u[5,1]     OBJ        0
    u[5,1]     primal_lower 66
    u[5,2]     OBJ        0
    u[5,2]     primal_lower 60
    u[5,3]     OBJ        0
    u[5,3]     primal_lower 90
    u[5,4]     OBJ        0
    u[5,4]     primal_lower 25
    u[5,6]     OBJ        0
    u[5,6]     primal_lower 30
    u[5,7]     OBJ        0
    u[5,7]     primal_lower 83
    u[6,0]     OBJ        0
    u[6,0]     primal_lower 57
    u[6,1]     OBJ        0
    u[6,1]     primal_lower 83
    u[6,2]     OBJ        0
    u[6,2]     primal_lower 66
    u[6,3]     OBJ        0
    u[6,3]     primal_lower 56
    u[6,4]     OBJ        0
    u[6,4]     primal_lower 59
    u[6,5]     OBJ        0
    u[6,5]     primal_lower 91
    u[7,0]     OBJ        0
    u[7,0]     primal_lower 50
    u[7,1]     OBJ        0
    u[7,1]     primal_lower 75
    u[7,2]     OBJ        0
    u[7,2]     primal_lower 17
    u[7,3]     OBJ        0
    u[7,3]     primal_lower 16
    u[7,4]     OBJ        0
    u[7,4]     primal_lower 21
    u[7,5]     OBJ        0
    u[7,5]     primal_lower 65
    MARKER    'MARKER'                 'INTEND'
RHS
    RHS       primal_lower 231
BOUNDS
 LI BND       y[0,2]     0
 UI BND       y[0,2]     1
 LI BND       y[0,3]     0
 UI BND       y[0,3]     1
 LI BND       y[0,4]     0
 UI BND       y[0,4]     1
 LI BND       y[0,5]     0
 UI BND       y[0,5]     1
 LI BND       y[0,6]     0
 UI BND       y[0,6]     1
 LI BND       y[0,7]     0
 UI BND       y[0,7]     1
 LI BND       y[1,2]     0
 UI BND       y[1,2]     1
 LI BND       y[1,5]     0
 UI BND       y[1,5]     1
 LI BND       y[1,6]     0
 UI BND       y[1,6]     1
 LI BND       y[2,0]     0
 UI BND       y[2,0]     1
 LI BND       y[2,1]     0
 UI BND       y[2,1]     1
 LI BND       y[2,3]     0
 UI BND       y[2,3]     1
 LI BND       y[2,4]     0
 UI BND       y[2,4]     1
 LI BND       y[2,5]     0
 UI BND       y[2,5]     1
 LI BND       y[2,6]     0
 UI BND       y[2,6]     1
 LI BND       y[2,7]     0
 UI BND       y[2,7]     1
 LI BND       y[3,0]     0
 UI BND       y[3,0]     1
 LI BND       y[3,2]     0
 UI BND       y[3,2]     1
 LI BND       y[3,4]     0
 UI BND       y[3,4]     1
 LI BND       y[3,5]     0
 UI BND       y[3,5]     1
 LI BND       y[3,6]     0
 UI BND       y[3,6]     1
 LI BND       y[3,7]     0
 UI BND       y[3,7]     1
 LI BND       y[4,0]     0
 UI BND       y[4,0]     1
 LI BND       y[4,2]     0
 UI BND       y[4,2]     1
 LI BND       y[4,3]     0
 UI BND       y[4,3]     1
 LI BND       y[4,5]     0
 UI BND       y[4,5]     1
 LI BND       y[4,6]     0
 UI BND       y[4,6]     1
 LI BND       y[5,0]     0
 UI BND       y[5,0]     1
 LI BND       y[5,1]     0
 UI BND       y[5,1]     1
 LI BND       y[5,2]     0
 UI BND       y[5,2]     1
 LI BND       y[5,3]     0
 UI BND       y[5,3]     1
 LI BND       y[5,4]     0
 UI BND       y[5,4]     1
 LI BND       y[5,6]     0
 UI BND       y[5,6]     1
 LI BND       y[5,7]     0
 UI BND       y[5,7]     1
 LI BND       y[6,0]     0
 UI BND       y[6,0]     1
 LI BND       y[6,1]     0
 UI BND       y[6,1]     1
 LI BND       y[6,2]     0
 UI BND       y[6,2]     1
 LI BND       y[6,3]     0
 UI BND       y[6,3]     1
 LI BND       y[6,4]     0
 UI BND       y[6,4]     1
 LI BND       y[6,5]     0
 UI BND       y[6,5]     1
 LI BND       y[7,0]     0
 UI BND       y[7,0]     1
 LI BND       y[7,1]     0
 UI BND       y[7,1]     1
 LI BND       y[7,2]     0
 UI BND       y[7,2]     1
 LI BND       y[7,3]     0
 UI BND       y[7,3]     1
 LI BND       y[7,4]     0
 UI BND       y[7,4]     1
 LI BND       y[7,5]     0
 UI BND       y[7,5]     1
 LI BND       u[0,2]     0
 UI BND       u[0,2]     1
 LI BND       u[0,3]     0
 UI BND       u[0,3]     1
 LI BND       u[0,4]     0
 UI BND       u[0,4]     1
 LI BND       u[0,5]     0
 UI BND       u[0,5]     1
 LI BND       u[0,6]     0
 UI BND       u[0,6]     1
 LI BND       u[0,7]     0
 UI BND       u[0,7]     1
 LI BND       u[1,2]     0
 UI BND       u[1,2]     1
 LI BND       u[1,5]     0
 UI BND       u[1,5]     1
 LI BND       u[1,6]     0
 UI BND       u[1,6]     1
 LI BND       u[2,0]     0
 UI BND       u[2,0]     1
 LI BND       u[2,1]     0
 UI BND       u[2,1]     1
 LI BND       u[2,3]     0
 UI BND       u[2,3]     1
 LI BND       u[2,4]     0
 UI BND       u[2,4]     1
 LI BND       u[2,5]     0
 UI BND       u[2,5]     1
 LI BND       u[2,6]     0
 UI BND       u[2,6]     1
 LI BND       u[2,7]     0
 UI BND       u[2,7]     1
 LI BND       u[3,0]     0
 UI BND       u[3,0]     1
 LI BND       u[3,2]     0
 UI BND       u[3,2]     1
 LI BND       u[3,4]     0
 UI BND       u[3,4]     1
 LI BND       u[3,5]     0
 UI BND       u[3,5]     1
 LI BND       u[3,6]     0
 UI BND       u[3,6]     1
 LI BND       u[3,7]     0
 UI BND       u[3,7]     1
 LI BND       u[4,0]     0
 UI BND       u[4,0]     1
 LI BND       u[4,2]     0
 UI BND       u[4,2]     1
 LI BND       u[4,3]     0
 UI BND       u[4,3]     1
 LI BND       u[4,5]     0
 UI BND       u[4,5]     1
 LI BND       u[4,6]     0
 UI BND       u[4,6]     1
 LI BND       u[5,0]     0
 UI BND       u[5,0]     1
 LI BND       u[5,1]     0
 UI BND       u[5,1]     1
 LI BND       u[5,2]     0
 UI BND       u[5,2]     1
 LI BND       u[5,3]     0
 UI BND       u[5,3]     1
 LI BND       u[5,4]     0
 UI BND       u[5,4]     1
 LI BND       u[5,6]     0
 UI BND       u[5,6]     1
 LI BND       u[5,7]     0
 UI BND       u[5,7]     1
 LI BND       u[6,0]     0
 UI BND       u[6,0]     1
 LI BND       u[6,1]     0
 UI BND       u[6,1]     1
 LI BND       u[6,2]     0
 UI BND       u[6,2]     1
 LI BND       u[6,3]     0
 UI BND       u[6,3]     1
 LI BND       u[6,4]     0
 UI BND       u[6,4]     1
 LI BND       u[6,5]     0
 UI BND       u[6,5]     1
 LI BND       u[7,0]     0
 UI BND       u[7,0]     1
 LI BND       u[7,1]     0
 UI BND       u[7,1]     1
 LI BND       u[7,2]     0
 UI BND       u[7,2]     1
 LI BND       u[7,3]     0
 UI BND       u[7,3]     1
 LI BND       u[7,4]     0
 UI BND       u[7,4]     1
 LI BND       u[7,5]     0
 UI BND       u[7,5]     1
ENDATA
